# Objective value = 95600
x66 0
x67 0
x68 1
x69 0
x70 1
x71 1
x72 1
x73 0
x74 0
x75 0
x76 0
x77 1
x78 1
x79 1
x80 0
x81 0
x82 1
x83 1
x84 1
x85 0
x86 1
x87 1
x88 0
x89 0
x90 0
x91 1
x92 0
x93 0
x94 0
x95 1
x96 1
x97 1
x98 0
x99 1
x100 1
x101 0
x102 0
x103 1
x104 1
x105 1
x106 0
x107 1
x108 1
x109 0
x110 1
x111 1
x112 0
x113 0
x114 0
x115 1
x116 0
x117 0
x118 1
x119 0
x120 0
x121 0
x122 1
x123 1
x124 1
x125 0
x126 1
x127 1
x128 0
x129 1
x130 1
x131 0
x132 0
x133 1
x134 1
x135 1
x136 0
x137 1
x138 1
x139 0
x140 1
x141 1
x142 0
x143 1
x144 1
x145 0
x146 0
x147 0
x148 1
x149 0
x150 0
x151 1
x152 0
x153 0
x154 1
x155 0
x156 0
x157 0
x158 1
x159 1
x160 1
x161 0
x162 1
x163 1
x164 0
x165 1
x166 1
x167 0
x168 1
x169 1
x170 0
x171 0
x172 1
x173 1
x174 1
x175 0
x176 1
x177 1
x178 0
x179 1
x180 1
x181 0
x182 1
x183 1
x184 0
x185 1
x186 0
x187 1
x188 1
x189 1
x190 0
x191 1
x192 1
x193 0
x194 1
x195 1
x196 0
x197 1
x198 1
x199 0
x200 1
x201 1
x202 0
x203 1
x204 1
x205 1
x206 0
x207 1
x208 0
x209 1
x210 0
x211 0
x212 0
x213 1
x214 1
x215 0
x216 0
x217 0
x218 1
x219 1
x220 1
x221 0
x222 1
x223 1
x224 1
x225 0
x226 0
x227 1
x228 1
x229 1
x230 0
x231 1
x232 1
x233 1
x234 0
x235 1
x236 1
x237 0
x238 0
x239 1
x240 0
x241 0
x242 1
x243 0
x244 1
x245 0
x246 0
x247 0
x248 1
x249 1
x250 0
x251 1
x252 0
x253 1
x254 1
x255 0
x256 1
x257 1
x258 0
x259 0
x260 1
x261 1
x262 0
x263 1
x264 1
x265 1
x266 1
x267 0
x268 1
x269 1
x270 0
x271 1
x272 0
x273 1
x274 1
x275 0
x276 1
x277 1
x278 1
x279 1
x280 0
x281 1
x282 1
x283 0
x284 1
x285 1
x286 0
x287 1
x288 1
x289 1
x290 0
x291 1
x292 1
x293 1
x294 0
x295 1
x296 1
x297 0
x298 1
x299 1
x300 1
x301 0
x302 1
x303 1
x304 1
x305 0
x306 1
x307 1
x308 1
x309 0
x310 1
x311 1
x312 0
x313 1
x314 1
x315 1
x316 1
x317 0
x318 1
x319 0
x320 1
x321 0
x322 1
x323 1
x324 1
x325 0
x326 1
x327 1
x328 0
x329 1
x330 1
x331 1
x332 1
x333 1
x334 1
x335 1
x336 0
x337 0
x338 1
x339 0
x340 0
x341 0
x342 1
x343 0
x344 0
x345 1
x346 0
x347 0
x348 0
x349 0
x350 0
x351 0
x352 0
x353 1
x354 1
x355 0
x356 1
x357 1
x358 1
x359 1
x360 0
x361 1
x362 1
x363 0
x364 1
x365 1
x366 1
x367 1
x368 1
x369 1
x370 0
x371 0
x372 1
x373 1
x374 0
x375 1
x376 1
x377 1
x378 1
x379 0
x380 1
x381 1
x382 0
x383 1
x384 1
x385 1
x386 1
x387 1
x388 1
x389 0
x390 1
x391 1
x392 0
x393 1
x394 1
x395 0
x396 0
x397 0
x398 0
x399 1
x400 0
x401 0
x402 1
x403 0
x404 0
x405 0
x406 0
x407 0
x408 0
x409 1
x410 0
x411 0
x412 0
x413 0
x414 1
x415 0
x416 1
x417 1
x418 1
x419 1
x420 0
x421 1
x422 1
x423 0
x424 1
x425 1
x426 1
x427 1
x428 1
x429 1
x430 0
x431 1
x432 1
x433 0
x434 0
x435 1
x436 1
x437 1
x438 0
x439 1
x440 1
x441 0
x442 1
x443 1
x444 0
x445 0
x446 1
x447 1
x448 1
x449 0
x450 1
x451 1
x452 0
x453 1
x454 1
x455 1
x456 1
x457 1
x458 0
x459 0
x460 0
x461 1
x462 1
x463 0
x464 1
x465 0
x466 0
x467 0
x468 0
x469 0
x470 0
x471 1
x472 1
x473 1
x474 0
x475 1
x476 1
x477 0
x478 1
x479 1
x480 1
x481 1
x482 1
x483 0
x484 0
x485 1
x486 1
x487 1
x488 0
x489 1
x490 1
x491 0
x492 1
x493 1
x494 1
x495 1
x496 1
x497 0
x498 1
x499 0
x500 1
x501 1
x502 1
x503 0
x504 1
x505 0
x506 0
x507 1
x508 1
x509 1
x510 1
x511 1
x512 0
x513 1
x514 1
x515 0
x516 1
x517 1
x518 1
x519 0
x520 1
x521 1
x522 0
x523 1
x524 1
x525 1
x526 1
x527 1
x528 0
x529 1
x530 1
x531 1
x532 1
x533 1
x534 0
x535 0
x536 1
x537 0
x538 0
x539 1
x540 0
x541 0
x542 0
x543 0
x544 0
x545 1
x546 0
x547 0
x548 0
x549 0
x550 1
x551 0
x552 1
x553 0
x554 0
x555 1
x556 0
x557 0
x558 0
x559 1
x560 0
x561 0
x562 0
x563 1
x564 0
x565 0
x566 0
x567 0
x568 1
x569 0
x570 1
x571 0
x572 1
x573 1
x574 1
x575 1
x576 1
x577 1
x578 0
x579 1
x580 1
x581 1
x582 0
x583 1
x584 1
x585 1
x586 1
x587 0
x588 0
x589 0
x590 1
x591 0
x592 1
x593 1
x594 1
x595 1
x596 1
x597 1
x598 0
x599 0
x600 1
x601 1
x602 0
x603 1
x604 1
x605 1
x606 1
x607 0
x608 0
x609 1
x610 0
x611 1
x612 0
x613 1
x614 1
x615 1
x616 1
x617 1
x618 1
x619 0
x620 1
x621 1
x622 1
x623 0
x624 1
x625 1
x626 1
x627 1
x628 0
x629 0
x630 1
x631 1
x632 0
x633 1
x634 0
x635 1
x636 1
x637 1
x638 1
x639 1
x640 1
x641 0
x642 1
x643 1
x644 1
x645 0
x646 1
x647 1
x648 1
x649 1
x650 0
x651 0
x652 1
x653 1
x654 1
x655 1
x656 1
x657 1
x658 0
x659 0
x660 0
x661 0
x662 0
x663 0
x664 1
x665 0
x666 0
x667 0
x668 1
x669 0
x670 0
x671 0
x672 0
x673 1
x674 1
x675 0
x676 0
x677 0
x678 0
x679 0
x680 1
x681 0
x682 1
x683 1
x684 1
x685 1
x686 1
x687 1
x688 0
x689 1
x690 1
x691 1
x692 0
x693 1
x694 1
x695 1
x696 1
x697 0
x698 0
x699 1
x700 1
x701 1
x702 1
x703 0
x704 0
x705 1
x706 0
x707 1
x708 1
x709 1
x710 0
x711 1
x712 1
x713 0
x714 1
x715 1
x716 1
x717 0
x718 1
x719 1
x720 1
x721 1
x722 0
x723 0
x724 1
x725 1
x726 1
x727 1
x728 0
x729 1
x730 1
x731 0
x732 0
x733 0
x734 1
x735 0
x736 0
x737 1
x738 0
x739 0
x740 1
x741 0
x742 0
x743 1
x744 0
x745 1
x746 0
x747 0
x748 1
x749 1
x750 1
x751 0
x752 1
x753 1
x754 0
x755 1
x756 1
x757 1
x758 1
x759 1
x760 0
x761 1
x762 1
x763 0
x764 0
x765 0
x766 1
x767 1
x768 1
x769 0
x770 0
x771 1
x772 0
x773 1
x774 1
x775 1
x776 1
x777 1
x778 0
x779 1
x780 1
x781 1
x782 0
x783 1
x784 0
x785 1
x786 1
x787 1
x788 0
x789 1
x790 1
x791 0
x792 1
x793 1
x794 1
x795 1
x796 1
x797 0
x798 1
x799 1
x800 1
x801 0
x802 1
x803 1
x804 0
x805 1
x806 1
x807 1
x808 0
x809 1
x810 1
x811 0
x812 1
x813 1
x814 1
x815 1
x816 1
x817 1
x818 0
x819 0
x820 1
x821 0
x822 1
x823 1
x824 1
x825 1
x826 0
x827 0
x828 0
x829 1
x830 0
x831 1
x832 1
x833 0
x834 0
x835 0
x836 0
x837 0
x838 0
x839 1
x840 0
x841 1
x842 1
x843 0
x844 0
x845 0
x846 0
x847 0
x848 1
x849 1
x850 1
x851 0
x852 1
x853 1
x854 0
x855 1
x856 1
x857 1
x858 1
x859 1
x860 1
x861 0
x862 1
x863 1
x864 0
x865 1
x866 1
x867 1
x868 1
x869 0
x870 0
x871 0
x872 1
x873 1
x874 0
x875 1
x876 1
x877 0
x878 1
x879 1
x880 1
x881 1
x882 1
x883 1
x884 0
x885 1
x886 1
x887 0
x888 1
x889 1
x890 1
x891 1
x892 0
x893 1
x894 0
x895 1
x896 0
x897 1
x898 1
x899 0
x900 1
x901 1
x902 1
x903 0
x904 1
x905 1
x906 1
x907 0
x908 1
x909 1
x910 1
x911 0
x912 1
x913 1
x914 1
x915 1
x916 0
x917 1
x918 1
x919 0
x920 1
x921 0
x922 1
x923 1
x924 1
x925 1
x926 1
x927 1
x928 0
x929 1
x930 1
x931 1
x932 0
x933 1
x934 1
x935 1
x936 0
x937 1
x938 1
x939 1
x940 1
x941 0
x942 1
x943 1
x944 1
x945 1
x946 0
x947 1
x948 0
x949 0
x950 0
x951 0
x952 0
x953 0
x954 1
x955 1
x956 1
x957 0
x958 1
x959 0
x960 0
x961 0
x962 1
x963 0
x964 0
x965 0
x966 0
x967 1
x968 0
x969 0
x970 0
x971 0
x972 0
x973 1
x974 0
x975 1
x976 1
x977 1
x978 1
x979 1
x980 1
x981 0
x982 1
x983 1
x984 0
x985 0
x986 1
x987 1
x988 1
x989 0
x990 1
x991 1
x992 1
x993 1
x994 0
x995 1
x996 1
x997 1
x998 1
x999 0
x1000 0
x1001 1
x1002 0
x1003 1
x1004 1
x1005 1
x1006 1
x1007 1
x1008 1
x1009 0
x1010 1
x1011 1
x1012 1
x1013 1
x1014 0
x1015 1
x1016 1
x1017 0
x1018 1
x1019 1
x1020 1
x1021 1
x1022 0
x1023 1
x1024 1
x1025 1
x1026 1
x1027 0
x1028 1
x1029 0
x1030 0
x1031 0
x1032 1
x1033 1
x1034 1
x1035 1
x1036 1
x1037 1
x1038 0
x1039 1
x1040 1
x1041 1
x1042 1
x1043 0
x1044 1
x1045 1
x1046 0
x1047 1
x1048 1
x1049 1
x1050 1
x1051 0
x1052 1
x1053 1
x1054 1
x1055 1
x1056 0
x1057 1
x1058 1
x1059 0
x1060 1
x1061 0
x1062 1
x1063 1
x1064 1
x1065 1
x1066 1
x1067 1
x1068 0
x1069 1
x1070 0
x1071 1
x1072 1
x1073 0
x1074 1
x1075 1
x1076 0
x1077 1
x1078 1
x1079 1
x1080 1
x1081 0
x1082 1
x1083 1
x1084 1
x1085 1
x1086 0
x1087 1
x1088 1
x1089 1
x1090 1
x1091 0
x1092 1
x1093 0
x1094 0
x1095 0
x1096 1
x1097 0
x1098 0
x1099 1
x1100 0
x1101 0
x1102 1
x1103 0
x1104 1
x1105 0
x1106 0
x1107 1
x1108 0
x1109 0
x1110 0
x1111 0
x1112 1
x1113 0
x1114 0
x1115 0
x1116 0
x1117 1
x1118 0
x1119 0
x1120 0
x1121 0
x1 1
x2 0
x3 0
x4 0
x5 1
x6 0
x7 0
x8 1
x9 0
x10 0
x11 1
x12 0
x13 0
x14 1
x15 0
x16 0
x17 0
x18 0
x19 1
x20 0
x21 0
x22 1
x23 0
x24 0
x25 0
x26 0
x27 0
x28 0
x29 1
x30 0
x31 0
x32 1
x33 0
x34 0
x35 0
x36 1
x37 0
x38 0
x39 0
x40 0
x41 1
x42 1
x43 0
x44 0
x45 0
x46 0
x47 1
x48 0
x49 0
x50 1
x51 0
x52 0
x53 0
x54 0
x55 1
x56 0
x57 0
x58 0
x59 0
x60 1
x61 0
x62 0
x63 0
x64 0
x65 1
